TYPE : Vertex Cover
DIMENSION: 20
EDGE_DATA_SECTION:
0 3
0 9
0 19
1 3
1 10
1 11
2 3
2 12
3 4
3 6
3 10
3 11
3 14
3 18
4 8
4 18
4 19
5 12
5 13
6 8
6 11
7 13
9 18
10 12
10 14
11 16
12 18
12 19
14 18
15 16
15 18
18 19
-1
VERTEX_DEGREE:
3.0 3.0 2.0 9.0 4.0 2.0 3.0 1.0 2.0 2.0 4.0 4.0 5.0 2.0 3.0 2.0 2.0 0.0 7.0 4.0
VERTEX_COVER:
3 8 9 10 11 12 13 16 18 19
EOF
